<number of tasks>
9

<cycle time>
18

<task times>
1 5
2 3
3 4
4 5
5 4
6 5
7 1
8 4
9 6

<task process alternatives>
1: 4,15 ; 6,8
2: 3,15 ; 4,8
3: 4,15 ; 5,8
4: 4,15 ; 6,8
5: 4,15 ; 5,8
6: 4,15 ; 6,8
7: 1,15 ; 2,8
8: 4,15 ; 5,8
9: 5,15 ; 8,8

<incompatible tasks>
6,2
8,7

<precedence relations>
2,4
1,2
3,4
5,8
6,9
4,6
7,9
4,5
8,9
1,3
4,7

<linked tasks>
1,4

<optimal SALBP-1 value>
3

<rand seed>
236278236

<end>
